&GLOBAL
   PRINT_LEVEL LOW
   PROJECT_NAME water
   WALLTIME 50000
   RUN_TYPE DRIVER                                                                                                                                                                                      
&END GLOBAL
&FORCE_EVAL
  METHOD QS
 
 &DFT
    CHARGE 0
    BASIS_SET_FILE_NAME GTH_BASIS_SETS
    POTENTIAL_FILE_NAME GTH_POTENTIALS
    &MGRID
      NGRIDS 5
      CUTOFF 400
      REL_CUTOFF 60
    &END MGRID
    &QS
      METHOD GPW
    &END QS
    &SCF
      EPS_SCF 5e-7
      MAX_SCF 2000
      &OT  T
         ALGORITHM  IRAC
         MINIMIZER  DIIS
       &END OT
      SCF_GUESS restart
    &END SCF


    &XC
       &XC_FUNCTIONAL NO_SHORTCUT
         &PBE T
           PARAMETRIZATION REVPBE
         &END PBE
       &END XC_FUNCTIONAL
       &VDW_POTENTIAL
         POTENTIAL_TYPE PAIR_POTENTIAL
         &PAIR_POTENTIAL
           R_CUTOFF  1.5000000000000005E+001
           TYPE DFTD3
           PARAMETER_FILE_NAME dftd3.dat
           REFERENCE_FUNCTIONAL "revPBE"
           LONG_RANGE_CORRECTION T
         &END PAIR_POTENTIAL
       &END VDW_POTENTIAL
    &END XC

   !&PERIODIC_EFIELD
   !     INTENSITY 0.000
   !     POLARISATION 0.0 0.0 1.0
   !&END PERIODIC_EFIELD

   !  &PRINT
   !  ! &V_HARTREE_CUBE ON                                                                                               
   !  !   LOG_PRINT_KEY T                                                                                                
   !  ! &END V_HARTREE_CUBE                                                                                              
   !  ! &EFIELD_CUBE ON                                                                                                  
   !  !   LOG_PRINT_KEY T                                                                                                
   !  ! &END EFIELD_CUBE                                                                                                 
   !   &MOMENTS
   !     PERIODIC TRUE
   !   &END MOMENTS
   !  &END PRINT

  &END DFT

  &SUBSYS
  &CELL
     ABC 12.42 12.42 12.42
      PERIODIC XYZ
  &END
  &TOPOLOGY
     COORD_FILE_FORMAT XYZ
     COORD_FILE_NAME initial.xyz
 &END
    &KIND H
      BASIS_SET TZVP-GTH
      POTENTIAL GTH-BLYP
    &END
    &KIND O
      BASIS_SET TZVP-GTH
      POTENTIAL GTH-BLYP
    &END
  &END SUBSYS
 
&END
&MOTION
   &DRIVER                                                                                                                                                                                              
      HOST ipihost                                                                                                                                                                                      
      PORT 22251                                                                                                                                                                                        
   &END DRIVER                                                                                                                                                                                          
                 

	&PRINT
	   &TRAJECTORY
	      &EACH
	          MD 2
	      &END EACH
	   &END TRAJECTORY
	   &RESTART
	      &EACH
	         MD 1
              &END EACH
           &END RESTART
        &END PRINT
&END MOTION
